Route #1: 100 61 23
Route #2: 71 62 99 98 89
Route #3: 27 97 19
Route #4: 82 60 59
Route #5: 75 93
Route #6: 8 17
Route #7: 30 85 11 79
Route #8: 40 88 67 44
Route #9: 1 70 54
Route #10: 5 12 58
Route #11: 32 33 53 73 95 24
Route #12: 63 77 3
Route #13: 21 56 94 80
Route #14: 69 16 55 76
Route #15: 50 91 52
Route #16: 92 9 86
Route #17: 14 49 6 37 87
Route #18: 81 51 83
Route #19: 25 65 78 42 28
Route #20: 34 64 96 48 26 47 38
Route #21: 20 41 22 15
Route #22: 18 10 39
Route #23: 4 13 74
Route #24: 7 2 45 43 29 36 72 57
Route #25: 35 46 31
Route #26: 68 90 84 66
Cost 27591.0000
Time 16.0007